12623
1 0 1 1 1 1 1 0 1 1 1 0 0 0 0 0 0 0 1 1
19 19 8 6 10 19 0 2 6 10 19 2 6 6 10 19 19 0 6 10 9 2 2 6 10 0 0 0 6 10 19 6 8 6 9 19 19 2 5 8 9 2 2 4 18 19 19 0 4 5 19 19 18 5 9 19 19 2 6 8 19 3 6 6 10 19 19 0 4 9 19 3 8 4 9 0 0 2 4 2 4 2 2 6 10 2 2 2 4 18 4 2 2 6 18 19 19 2 6 9